c This is QMaxSAT 2017 based on 14.07
c This is Glucose 3.0
c This is MiniSat 2.2.0
c WARNING: for repeatability, setting FPU to use double precision
c card = mrwto, comp = 0, pmodel = 0, narr = 6, mct = 52, verb = 0
cr firstCPXsol 0 0 0
c top = 1525567
c |  Number of variables:    146274                                           |
c |  Number of clauses:      167400168                                        |
c |  Weight of hard clauses: 1525567                                          |
c |  Number of soft clauses: 15912                                            |
c |  Number of unit soft clauses: 15912                                       |
c |  Maximum Cardinality (by unit): 9153396      (9153396     )               |
c last restart ## conflicts  :  96 42220 
o 8996 | cpuTime 66.4791 s
c Sum of weights = 1525566
c A number of soft clauses remained = 2652
c MRWTO encoding for Pseudo-Boolean Constraints
c sizeMax=8996
c No.0 Divisor=10	generated by pow1
c No.1 Divisor=10	generated by pow1
c No.2 Divisor=10	generated by pow1
c No.3 Divisor=10	generated by pow1
c p0= 10	p1= 10	p2= 10	p3= 10	
c number of digits = 5
c linkingVar[0].size = 10, linkingVar[1].size = 10, linkingVar[2].size = 10, linkingVar[3].size = 9, linkingVar[4].size = 1, 
c Pseudo-Boolean Constraints: 71664 variables and 639164 clauses
c Sum of weights = 1525566
c A number of soft clauses remained = 2652
c MRWTO encoding for Pseudo-Boolean Constraints
c sizeMax=8996
c No.0 Divisor=10	generated by pow1
c No.1 Divisor=10	generated by pow1
c No.2 Divisor=10	generated by pow1
c No.3 Divisor=10	generated by pow1
c p0= 10	p1= 10	p2= 10	p3= 10	
c number of digits = 5
c linkingVar[0].size = 10, linkingVar[1].size = 10, linkingVar[2].size = 10, linkingVar[3].size = 9, linkingVar[4].size = 1, 
c Pseudo-Boolean Constraints: 71664 variables and 639164 clauses
c Sum of weights = 1525566
c A number of soft clauses remained = 2652
c MRWTO encoding for Pseudo-Boolean Constraints
c sizeMax=8996
c No.0 Divisor=10	generated by pow1
c No.1 Divisor=10	generated by pow1
c No.2 Divisor=10	generated by pow1
c No.3 Divisor=10	generated by pow1
c p0= 10	p1= 10	p2= 10	p3= 10	
c number of digits = 5
c linkingVar[0].size = 10, linkingVar[1].size = 10, linkingVar[2].size = 10, linkingVar[3].size = 9, linkingVar[4].size = 1, 
c Pseudo-Boolean Constraints: 71664 variables and 639164 clauses
c Sum of weights = 1525566
c A number of soft clauses remained = 2652
c MRWTO encoding for Pseudo-Boolean Constraints
c sizeMax=8996
c No.0 Divisor=10	generated by pow1
c No.1 Divisor=10	generated by pow1
c No.2 Divisor=10	generated by pow1
c No.3 Divisor=10	generated by pow1
c p0= 10	p1= 10	p2= 10	p3= 10	
c number of digits = 5
c linkingVar[0].size = 10, linkingVar[1].size = 10, linkingVar[2].size = 10, linkingVar[3].size = 9, linkingVar[4].size = 1, 
c Pseudo-Boolean Constraints: 71664 variables and 639164 clauses
c Sum of weights = 1525566
c A number of soft clauses remained = 2652
c MRWTO encoding for Pseudo-Boolean Constraints
c sizeMax=8996
c No.0 Divisor=10	generated by pow1
c No.1 Divisor=10	generated by pow1
c No.2 Divisor=10	generated by pow1
c No.3 Divisor=10	generated by pow1
c p0= 10	p1= 10	p2= 10	p3= 10	
c number of digits = 5
c linkingVar[0].size = 10, linkingVar[1].size = 10, linkingVar[2].size = 10, linkingVar[3].size = 9, linkingVar[4].size = 1, 
c Pseudo-Boolean Constraints: 71664 variables and 639164 clauses
c Sum of weights = 1525566
c A number of soft clauses remained = 2652
c MRWTO encoding for Pseudo-Boolean Constraints
c sizeMax=8996
c No.0 Divisor=10	generated by pow1
c No.1 Divisor=10	generated by pow1
c No.2 Divisor=10	generated by pow1
c No.3 Divisor=10	generated by pow1
c p0= 10	p1= 10	p2= 10	p3= 10	
c number of digits = 5
c linkingVar[0].size = 10, linkingVar[1].size = 10, linkingVar[2].size = 10, linkingVar[3].size = 9, linkingVar[4].size = 1, 
c Pseudo-Boolean Constraints: 71664 variables and 639164 clauses
c last restart ## conflicts  :  392 87833 
o 7359 | cpuTime 1823.78 s
s UNKNOWN
c Search is stopped by a limit (maybe time-limit)
cr positiVarArr: [ | 2@1(1->2) | 101@1(2->49) | 457@1(9->41) | 1170@1(23->26) | 1295@1(25->47) | 1327@1(26->27) | 1402@1(27->50) | 2018@1(39->42) | 2081@1(41->1) | 2141@1(42->9) | 2431@1(47->39) | 2519@1(49->23) | 2573@1(50->25) | 2735@2(1->31) | 2913@2(5->1) | 3068@2(7->52) | 3333@2(13->5) | 3456@2(15->24) | 3551@2(17->15) | 3913@2(24->13) | 4142@2(28->34) | 4271@2(31->7) | 4437@2(34->17) | 5384@2(52->28) | 5412@3(1->4) | 5597@3(4->33) | 6128@3(14->44) | 6917@3(30->1) | 7115@3(33->43) | 7606@3(43->14) | 7674@3(44->30) | 8120@4(1->8) | 8511@4(8->35) | 8581@4(10->1) | 9916@4(35->36) | 9977@4(36->45) | 10410@4(45->10) | 10853@5(1->37) | 11116@5(6->40) | 11722@5(18->22) | 11874@5(21->18) | 11914@5(22->6) | 12739@5(37->51) | 12845@5(40->1) | 13437@5(51->21) | 13531@6(1->11) | 13662@6(3->38) | 14088@6(11->48) | 14124@6(12->32) | 14312@6(16->12) | 14485@6(19->29) | 14554@6(20->46) | 14979@6(29->3) | 15151@6(32->19) | 15464@6(38->20) | 15861@6(46->1) | 15980@6(48->16) | ]
cr the 1-th chain: [ 1->2->49->23->26->27->50->25->47->39->42->9->41->1 ] (#non-depot=12) {#cumul.=13}
cr the 2-th chain: [ 1->31->7->52->28->34->17->15->24->13->5->1 ] (#non-depot=10) {#cumul.=23}
cr the 3-th chain: [ 1->4->33->43->14->44->30->1 ] (#non-depot=6) {#cumul.=29}
cr the 4-th chain: [ 1->8->35->36->45->10->1 ] (#non-depot=5) {#cumul.=34}
cr the 5-th chain: [ 1->37->51->21->18->22->6->40->1 ] (#non-depot=7) {#cumul.=41}
cr the 6-th chain: [ 1->11->48->16->12->32->19->29->3->38->20->46->1 ] (#non-depot=11) {#cumul.=52}
c Latest Answer = 0 by 2 loops
c restarts              : 67941
c conflicts             : 9972021        (2784 /sec)
c decisions             : 2279346945     (0.00 % random) (636435 /sec)
c propagations          : 27539078672    (7689415 /sec)
c conflict literals     : 3042969107     (3.80 % deleted)
c Memory used           : 14317.00 MB
c CPU time              : 3581.43 s
